NAME : portcgen-20-14
COMMENT : portcgen N=20, seed=14
TYPE : TSP
DIMENSION : 20
EDGE_WEIGHT_TYPE : EUC_2D
NODE_COORD_SECTION
1 -581250 -244411
2 -329602 402685
3 82589 -135641
4 139796 -102069
5 365847 -140250
6 158891 -160160
7 237962 -60691
8 324722 -57483
9 -50008 -250764
10 -181100 -54374
11 -147916 -66754
12 14673 65449
13 -274011 -73851
14 199422 488463
15 112870 247809
16 101303 94890
17 153135 -373588
18 111805 -108335
19 115258 -146582
20 -188211 237384
